(set-info :smt-lib-version 2.6)
(set-info :category "crafted")
(set-logic QF_FFA)
(define-sort FF0 () (_ FiniteField 52435875175126190479447740508185965837690552500527637822603658699938581184513))
(declare-fun return_n1_alt () FF0)
(declare-fun mul_n29_alt () FF0)
(declare-fun mul_n36_alt () FF0)
(declare-fun mul_n30_alt () FF0)
(declare-fun mul_n35_alt () FF0)
(declare-fun mul_n34_alt () FF0)
(declare-fun j_n5_alt () FF0)
(declare-fun g_n11_alt () FF0)
(declare-fun mul_n33_alt () FF0)
(declare-fun d_n6_alt () FF0)
(declare-fun mul_n32_alt () FF0)
(declare-fun l_n0_alt () FF0)
(declare-fun mul_n31_alt () FF0)
(declare-fun a_n12_alt () FF0)
(declare-fun e_n4_alt () FF0)
(declare-fun b_n10_alt () FF0)
(declare-fun mul_n15_alt () FF0)
(declare-fun mul_n28_alt () FF0)
(declare-fun f_n2_alt () FF0)
(declare-fun mul_n22_alt () FF0)
(declare-fun mul_n13_alt () FF0)
(declare-fun mul_n27_alt () FF0)
(declare-fun mul_n24_alt () FF0)
(declare-fun mul_n26_alt () FF0)
(declare-fun mul_n25_alt () FF0)
(declare-fun mul_n16_alt () FF0)
(declare-fun mul_n23_alt () FF0)
(declare-fun k_n3_alt () FF0)
(declare-fun i_n7_alt () FF0)
(declare-fun mul_n21_alt () FF0)
(declare-fun h_n9_alt () FF0)
(declare-fun mul_n20_alt () FF0)
(declare-fun mul_n19_alt () FF0)
(declare-fun mul_n17_alt () FF0)
(declare-fun mul_n18_alt () FF0)
(declare-fun mul_n14_alt () FF0)
(declare-fun c_n8_alt () FF0)
(declare-fun return_n1 () FF0)
(declare-fun mul_n29 () FF0)
(declare-fun mul_n36 () FF0)
(declare-fun mul_n30 () FF0)
(declare-fun mul_n35 () FF0)
(declare-fun mul_n34 () FF0)
(declare-fun j_n5 () FF0)
(declare-fun g_n11 () FF0)
(declare-fun mul_n33 () FF0)
(declare-fun d_n6 () FF0)
(declare-fun mul_n32 () FF0)
(declare-fun l_n0 () FF0)
(declare-fun mul_n31 () FF0)
(declare-fun a_n12 () FF0)
(declare-fun e_n4 () FF0)
(declare-fun b_n10 () FF0)
(declare-fun mul_n15 () FF0)
(declare-fun mul_n28 () FF0)
(declare-fun f_n2 () FF0)
(declare-fun mul_n22 () FF0)
(declare-fun mul_n13 () FF0)
(declare-fun mul_n27 () FF0)
(declare-fun mul_n24 () FF0)
(declare-fun mul_n26 () FF0)
(declare-fun mul_n25 () FF0)
(declare-fun mul_n16 () FF0)
(declare-fun mul_n23 () FF0)
(declare-fun k_n3 () FF0)
(declare-fun i_n7 () FF0)
(declare-fun mul_n21 () FF0)
(declare-fun h_n9 () FF0)
(declare-fun mul_n20 () FF0)
(declare-fun mul_n19 () FF0)
(declare-fun mul_n17 () FF0)
(declare-fun mul_n18 () FF0)
(declare-fun mul_n14 () FF0)
(declare-fun c_n8 () FF0)
(assert 
  (let ((let0 return_n1_alt))
  (let ((let1 mul_n29_alt))
  (let ((let2 mul_n36_alt))
  (let ((let3 (ff.mul let2 let1)))
  (let ((let4 (= let3 let0)))
  (let ((let5 (as ff1 FF0)))
  (let ((let6 (as ff52435875175126190479447740508185965837690552500527637822603658699938581184512 FF0)))
  (let ((let7 mul_n30_alt))
  (let ((let8 (ff.mul let7 let6)))
  (let ((let9 (ff.add let8 let5)))
  (let ((let10 mul_n35_alt))
  (let ((let11 (ff.mul let10 let6)))
  (let ((let12 (ff.add let11 let5)))
  (let ((let13 (ff.mul let12 let9)))
  (let ((let14 (= let13 let2)))
  (let ((let15 mul_n34_alt))
  (let ((let16 (ff.mul let15 let6)))
  (let ((let17 (ff.add let16 let5)))
  (let ((let18 j_n5_alt))
  (let ((let19 (ff.mul let18 let17)))
  (let ((let20 (= let19 let10)))
  (let ((let21 g_n11_alt))
  (let ((let22 mul_n33_alt))
  (let ((let23 (ff.mul let22 let21)))
  (let ((let24 (= let23 let15)))
  (let ((let25 d_n6_alt))
  (let ((let26 mul_n32_alt))
  (let ((let27 (ff.mul let26 let25)))
  (let ((let28 (= let27 let22)))
  (let ((let29 l_n0_alt))
  (let ((let30 mul_n31_alt))
  (let ((let31 (ff.mul let30 let29)))
  (let ((let32 (= let31 let26)))
  (let ((let33 a_n12_alt))
  (let ((let34 (ff.mul let33 let33)))
  (let ((let35 (= let34 let30)))
  (let ((let36 e_n4_alt))
  (let ((let37 (ff.mul let36 let6)))
  (let ((let38 (ff.add let37 let5)))
  (let ((let39 b_n10_alt))
  (let ((let40 (ff.mul let39 let6)))
  (let ((let41 (ff.add let40 let5)))
  (let ((let42 (ff.mul let41 let38)))
  (let ((let43 (= let42 let7)))
  (let ((let44 mul_n15_alt))
  (let ((let45 mul_n28_alt))
  (let ((let46 (ff.mul let45 let44)))
  (let ((let47 (= let46 let1)))
  (let ((let48 f_n2_alt))
  (let ((let49 mul_n22_alt))
  (let ((let50 mul_n13_alt))
  (let ((let51 (ff.add let50 let49 let48)))
  (let ((let52 mul_n27_alt))
  (let ((let53 (ff.mul let52 let51)))
  (let ((let54 (= let53 let45)))
  (let ((let55 mul_n24_alt))
  (let ((let56 mul_n26_alt))
  (let ((let57 (ff.mul let56 let55)))
  (let ((let58 (= let57 let52)))
  (let ((let59 mul_n25_alt))
  (let ((let60 (ff.mul let59 let36)))
  (let ((let61 (= let60 let56)))
  (let ((let62 mul_n16_alt))
  (let ((let63 (ff.mul let62 let6)))
  (let ((let64 (ff.add let63 let5)))
  (let ((let65 mul_n23_alt))
  (let ((let66 (ff.mul let65 let64)))
  (let ((let67 (= let66 let55)))
  (let ((let68 k_n3_alt))
  (let ((let69 (ff.mul let68 let39)))
  (let ((let70 (= let69 let65)))
  (let ((let71 i_n7_alt))
  (let ((let72 (ff.mul let48 let6)))
  (let ((let73 (ff.mul let50 let6)))
  (let ((let74 (ff.add let73 let72 let71)))
  (let ((let75 mul_n21_alt))
  (let ((let76 (ff.mul let75 let74)))
  (let ((let77 (= let76 let49)))
  (let ((let78 h_n9_alt))
  (let ((let79 (ff.mul let78 let6)))
  (let ((let80 (ff.add let79 let5)))
  (let ((let81 mul_n20_alt))
  (let ((let82 (ff.mul let81 let80)))
  (let ((let83 (= let82 let75)))
  (let ((let84 mul_n19_alt))
  (let ((let85 (ff.mul let84 let29)))
  (let ((let86 (= let85 let81)))
  (let ((let87 mul_n17_alt))
  (let ((let88 (ff.mul let87 let6)))
  (let ((let89 (ff.add let88 let5)))
  (let ((let90 mul_n18_alt))
  (let ((let91 (ff.mul let90 let89)))
  (let ((let92 (= let91 let84)))
  (let ((let93 (ff.add let72 let5)))
  (let ((let94 (ff.mul let93 let71)))
  (let ((let95 (= let94 let90)))
  (let ((let96 (ff.mul let18 let6)))
  (let ((let97 (ff.add let96 let5)))
  (let ((let98 (ff.mul let97 let62)))
  (let ((let99 (= let98 let87)))
  (let ((let100 (ff.mul let21 let6)))
  (let ((let101 (ff.add let100 let5)))
  (let ((let102 (ff.mul let68 let101)))
  (let ((let103 (= let102 let62)))
  (let ((let104 (ff.add let73 let72 let5)))
  (let ((let105 mul_n14_alt))
  (let ((let106 (ff.mul let105 let104)))
  (let ((let107 (= let106 let44)))
  (let ((let108 (ff.mul let25 let6)))
  (let ((let109 (ff.add let108 let5)))
  (let ((let110 (ff.mul let109 let80)))
  (let ((let111 (= let110 let105)))
  (let ((let112 c_n8_alt))
  (let ((let113 (ff.add let112 let72)))
  (let ((let114 (ff.mul let36 let113)))
  (let ((let115 (= let114 let50)))
  (let ((let116 (and let115 let111 let107 let103 let99 let95 let92 let86 let83 let77 let70 let67 let61 let58 let54 let47 let43 let35 let32 let28 let24 let20 let14 let4)))
  (let ((let117 return_n1))
  (let ((let118 mul_n29))
  (let ((let119 mul_n36))
  (let ((let120 (ff.mul let119 let118)))
  (let ((let121 (= let120 let117)))
  (let ((let122 mul_n30))
  (let ((let123 (ff.mul let122 let6)))
  (let ((let124 (ff.add let123 let5)))
  (let ((let125 mul_n35))
  (let ((let126 (ff.mul let125 let6)))
  (let ((let127 (ff.add let126 let5)))
  (let ((let128 (ff.mul let127 let124)))
  (let ((let129 (= let128 let119)))
  (let ((let130 mul_n34))
  (let ((let131 (ff.mul let130 let6)))
  (let ((let132 (ff.add let131 let5)))
  (let ((let133 j_n5))
  (let ((let134 (ff.mul let133 let132)))
  (let ((let135 (= let134 let125)))
  (let ((let136 g_n11))
  (let ((let137 mul_n33))
  (let ((let138 (ff.mul let137 let136)))
  (let ((let139 (= let138 let130)))
  (let ((let140 d_n6))
  (let ((let141 mul_n32))
  (let ((let142 (ff.mul let141 let140)))
  (let ((let143 (= let142 let137)))
  (let ((let144 l_n0))
  (let ((let145 mul_n31))
  (let ((let146 (ff.mul let145 let144)))
  (let ((let147 (= let146 let141)))
  (let ((let148 a_n12))
  (let ((let149 (ff.mul let148 let148)))
  (let ((let150 (= let149 let145)))
  (let ((let151 e_n4))
  (let ((let152 (ff.mul let151 let6)))
  (let ((let153 (ff.add let152 let5)))
  (let ((let154 b_n10))
  (let ((let155 (ff.mul let154 let6)))
  (let ((let156 (ff.add let155 let5)))
  (let ((let157 (ff.mul let156 let153)))
  (let ((let158 (= let157 let122)))
  (let ((let159 mul_n15))
  (let ((let160 mul_n28))
  (let ((let161 (ff.mul let160 let159)))
  (let ((let162 (= let161 let118)))
  (let ((let163 f_n2))
  (let ((let164 mul_n22))
  (let ((let165 mul_n13))
  (let ((let166 (ff.add let165 let164 let163)))
  (let ((let167 mul_n27))
  (let ((let168 (ff.mul let167 let166)))
  (let ((let169 (= let168 let160)))
  (let ((let170 mul_n24))
  (let ((let171 mul_n26))
  (let ((let172 (ff.mul let171 let170)))
  (let ((let173 (= let172 let167)))
  (let ((let174 mul_n25))
  (let ((let175 (ff.mul let174 let151)))
  (let ((let176 (= let175 let171)))
  (let ((let177 mul_n16))
  (let ((let178 (ff.mul let177 let6)))
  (let ((let179 (ff.add let178 let5)))
  (let ((let180 mul_n23))
  (let ((let181 (ff.mul let180 let179)))
  (let ((let182 (= let181 let170)))
  (let ((let183 k_n3))
  (let ((let184 (ff.mul let183 let154)))
  (let ((let185 (= let184 let180)))
  (let ((let186 i_n7))
  (let ((let187 (ff.mul let163 let6)))
  (let ((let188 (ff.mul let165 let6)))
  (let ((let189 (ff.add let188 let187 let186)))
  (let ((let190 mul_n21))
  (let ((let191 (ff.mul let190 let189)))
  (let ((let192 (= let191 let164)))
  (let ((let193 h_n9))
  (let ((let194 (ff.mul let193 let6)))
  (let ((let195 (ff.add let194 let5)))
  (let ((let196 mul_n20))
  (let ((let197 (ff.mul let196 let195)))
  (let ((let198 (= let197 let190)))
  (let ((let199 mul_n19))
  (let ((let200 (ff.mul let199 let144)))
  (let ((let201 (= let200 let196)))
  (let ((let202 mul_n17))
  (let ((let203 (ff.mul let202 let6)))
  (let ((let204 (ff.add let203 let5)))
  (let ((let205 mul_n18))
  (let ((let206 (ff.mul let205 let204)))
  (let ((let207 (= let206 let199)))
  (let ((let208 (ff.add let187 let5)))
  (let ((let209 (ff.mul let208 let186)))
  (let ((let210 (= let209 let205)))
  (let ((let211 (ff.mul let133 let6)))
  (let ((let212 (ff.add let211 let5)))
  (let ((let213 (ff.mul let212 let177)))
  (let ((let214 (= let213 let202)))
  (let ((let215 (ff.mul let136 let6)))
  (let ((let216 (ff.add let215 let5)))
  (let ((let217 (ff.mul let183 let216)))
  (let ((let218 (= let217 let177)))
  (let ((let219 (ff.add let188 let187 let5)))
  (let ((let220 mul_n14))
  (let ((let221 (ff.mul let220 let219)))
  (let ((let222 (= let221 let159)))
  (let ((let223 (ff.mul let140 let6)))
  (let ((let224 (ff.add let223 let5)))
  (let ((let225 (ff.mul let224 let195)))
  (let ((let226 (= let225 let220)))
  (let ((let227 c_n8))
  (let ((let228 (ff.add let227 let187)))
  (let ((let229 (ff.mul let151 let228)))
  (let ((let230 (= let229 let165)))
  (let ((let231 (and let230 let226 let222 let218 let214 let210 let207 let201 let198 let192 let185 let182 let176 let173 let169 let162 let158 let150 let147 let143 let139 let135 let129 let121)))
  (let ((let232 (= let117 let0)))
  (let ((let233 (not let232)))
  (let ((let234 (= let151 let36)))
  (let ((let235 (= let136 let21)))
  (let ((let236 (= let186 let71)))
  (let ((let237 (= let148 let33)))
  (let ((let238 (= let133 let18)))
  (let ((let239 (= let163 let48)))
  (let ((let240 (= let227 let112)))
  (let ((let241 (= let154 let39)))
  (let ((let242 (= let140 let25)))
  (let ((let243 (= let193 let78)))
  (let ((let244 (= let183 let68)))
  (let ((let245 (= let144 let29)))
  (let ((let246 (and let245 let244 let243 let242 let241 let240 let239 let238 let237 let236 let235 let234)))
  (let ((let247 (and let246 let233 let231 let116)))
  let247
))))))))))))))))))))))))))))))))))))))))))))))))))))))))))))))))))))))))))))))))))))))))))))))))))))))))))))))))))))))))))))))))))))))))))))))))))))))))))))))))))))))))))))))))))))))))))))))))))))))))))))))))))))))))))))))))))))))))))))))))))))))))
)
(check-sat)
